z1,z2,z3,nondominated
10,6,2,0
5,7,1,0
3,6,6,0
8,7,9,0
8,1,4,0
7,1,9,0
6,7,6,0
3,1,10,0
4,4,4,0
10,7,5,0
6,10,10,0
5,9,4,0
6,9,10,0
8,2,5,0
9,6,10,0
6,1,3,0
5,8,10,0
10,5,9,0
8,1,3,0
6,6,8,0
6,2,10,0
7,1,8,0
10,4,3,0
5,6,1,0
2,7,4,0
5,7,5,0
1,10,7,0
10,6,8,0
9,1,4,0
7,8,10,0
2,6,2,0
2,5,4,0
7,7,10,0
6,3,8,0
10,10,8,0
1,4,7,0
4,2,8,0
8,7,3,0
1,8,9,0
6,4,1,0
10,4,7,0
8,10,1,0
6,1,5,0
10,2,6,0
3,5,3,0
5,6,7,0
9,2,1,0
8,6,6,0
9,8,6,0
1,1,1,0
1,1,1,0
1,1,1,0
1,1,1,0
1,1,1,0
1,1,1,0
1,1,1,0
